proyfinal/src/viki/013/experimentInOfficeAgust.take6.output/735d5924-43d0-4f5e-a9a5-8d793c1703de.als.dat
{'cnf.clauses': '118081',
 'cnf.totvars': '69608',
 'conflict literals': '7',
 'conflicts': '6',
 'decisions': '663',
 'memused.mb': '15.18',
 'outcome': 'UNSAT',
 'propagations': '21220',
 'restarts': '1',
 'solver.msecs': 30,
 'task.msecs': 78}
