proyfinal/src/viki/013/experimentInOfficeAgust.take6.output/735d5924-43d0-4f5e-a9a5-8d793c1703de.als.out
Reading from standard input... Use '--help' for help.
============================[ Problem Statistics ]=============================
|                                                                             |
|  Number of variables:         69608                                         |
|  Number of clauses:          118081                                         |
|  Parse time:                   0.02 s                                       |
|                                                                             |
============================[ Search Statistics ]==============================
| Conflicts |          ORIGINAL         |          LEARNT          | Progress |
|           |    Vars  Clauses Literals |    Limit  Clauses Lit/Cl |          |
===============================================================================
===============================================================================
restarts              : 1
conflicts             : 6              (199 /sec)
decisions             : 663            (0.00 % random) (22010 /sec)
propagations          : 21220          (704468 /sec)
conflict literals     : 7              (0.00 % deleted)
Memory used           : 15.18 MB
CPU time              : 0.030122 s

UNSATISFIABLE
